(set-logic ALL)
(declare-fun var0 () String)
(assert (str.in_re var0 (re.++ (re.* (re.* (str.to_re "000"))) (re.++ (re.+ (re.union (str.to_re "1") (str.to_re "22"))) (re.++ (re.+ (re.* (str.to_re "3"))) (re.++ (re.+ (re.+ (str.to_re "44"))) (re.++ (re.+ (re.+ (str.to_re "555"))) (re.++ (re.* (re.+ (str.to_re "666"))) (re.++ (re.* (re.* (str.to_re "77"))) (re.++ (re.union (re.* (str.to_re "88")) (re.* (str.to_re "9"))) (re.++ (re.+ (re.* (str.to_re "aa"))) (re.++ (re.* (re.+ (str.to_re "bb"))) (re.++ (re.* (re.union (str.to_re "ccc") (str.to_re "dd"))) (re.++ (re.union (re.* (str.to_re "e")) (re.* (str.to_re "ff"))) (re.++ (re.* (re.union (str.to_re "ggg") (str.to_re "hhh"))) (re.++ (re.union (re.+ (str.to_re "ii")) (re.+ (str.to_re "j"))) (re.++ (re.union (re.union (str.to_re "kkk") (str.to_re "ll")) (re.union (str.to_re "mm") (str.to_re "nnn"))) (re.++ (re.* (re.* (str.to_re "ooo"))) (re.++ (re.* (re.+ (str.to_re "p"))) (re.++ (re.union (re.+ (str.to_re "qqq")) (re.+ (str.to_re "r"))) (re.++ (re.* (re.union (str.to_re "sss") (str.to_re "ttt"))) (re.++ (re.+ (re.* (str.to_re "u"))) (re.++ (re.+ (re.+ (str.to_re "vvv"))) (re.++ (re.* (re.* (str.to_re "ww"))) (re.++ (re.union (re.* (str.to_re "x")) (re.* (str.to_re "yy"))) (re.++ (re.* (re.* (str.to_re "zzz"))) (re.++ (re.+ (re.+ (str.to_re "AAA"))) (re.++ (re.union (re.+ (str.to_re "BBB")) (re.+ (str.to_re "CCC"))) (re.++ (re.union (re.* (str.to_re "D")) (re.* (str.to_re "EEE"))) (re.++ (re.* (re.+ (str.to_re "F"))) (re.++ (re.union (re.union (str.to_re "GGG") (str.to_re "HHH")) (re.union (str.to_re "II") (str.to_re "J"))) (re.++ (re.+ (re.* (str.to_re "KK"))) (re.++ (re.+ (re.* (str.to_re "LLL"))) (re.++ (re.+ (re.* (str.to_re "MM"))) (re.++ (re.union (re.+ (str.to_re "NNN")) (re.+ (str.to_re "OO"))) (re.++ (re.union (re.+ (str.to_re "P")) (re.+ (str.to_re "QQ"))) (re.++ (re.* (re.union (str.to_re "R") (str.to_re "SSS"))) (re.++ (re.union (re.* (str.to_re "T")) (re.* (str.to_re "UU"))) (re.++ (re.* (re.union (str.to_re "VVV") (str.to_re "W"))) (re.++ (re.+ (re.+ (str.to_re "X"))) (re.++ (re.+ (re.* (str.to_re "YY"))) (re.++ (re.* (re.union (str.to_re "ZZZ") (str.to_re "!!"))) (re.++ (re.union (re.* (str.to_re """")) (re.* (str.to_re "##"))) (re.++ (re.union (re.+ (str.to_re "$$$")) (re.+ (str.to_re "%%%"))) (re.++ (re.* (re.* (str.to_re "&&"))) (re.++ (re.+ (re.* (str.to_re "'"))) (re.++ (re.* (re.* (str.to_re "(("))) (re.++ (re.union (re.+ (str.to_re ")))")) (re.+ (str.to_re "**"))) (re.++ (re.+ (re.union (str.to_re "+") (str.to_re ",,"))) (re.++ (re.+ (re.* (str.to_re "-"))) (re.++ (re.union (re.union (str.to_re "..") (str.to_re "///")) (re.union (str.to_re ":::") (str.to_re ";;"))) (re.++ (re.+ (re.union (str.to_re "<<") (str.to_re "==="))) (re.++ (re.+ (re.* (str.to_re ">"))) (re.++ (re.union (re.union (str.to_re "??") (str.to_re "@@")) (re.union (str.to_re "[[[") (str.to_re "\\"))) (re.++ (re.* (re.* (str.to_re "]]]"))) (re.++ (re.union (re.* (str.to_re "^^^")) (re.* (str.to_re "___"))) (re.++ (re.* (re.* (str.to_re "`"))) (re.++ (re.* (re.union (str.to_re "{") (str.to_re "||"))) (re.+ (re.* (str.to_re "}}}")))))))))))))))))))))))))))))))))))))))))))))))))))))))))))))
(check-sat)